nEmpreses = 25;
nReunions = 16;
nTaules = 3;
nFrangesTotal = 12;
nFrangesMati = 6;

demanades = [|4, 1, 3,
|4, 2, 3,
|4, 5, 3,
|9, 1, 2,
|9, 3, 2,
|9, 4, 2,
|14, 2, 2,
|22, 25, 3,
|24, 2, 3,
|24, 5, 3,
|24, 6, 3,
|24, 20, 3,
|24, 21, 3,
|25, 3, 3,
|25, 4, 3,
|25, 24, 3,
|];

nReunionsEmpresa = [2, 3, 2, 5, 2, 1, 0, 0, 3, 0, 0, 0, 0, 1, 0, 0, 0, 0, 0, 1, 1, 1, 0, 6, 4, ];
empresesZero = 12;

fixat = [0,0,0,0,0,0,0,0,0,0,0,0,0,0,0,0,];

prohibides = [{0,},
{8,9,0,},
{0,},
{0,},
{9,1,0,},
{0,},
{10,11,12,0,},
{0,},
{0,},
{0,},
{0,},
{0,},
{8,9,0,},
{0,},
{0,},
{9,10,11,0,},
{0,},
{0,},
{0,},
{0,},
{0,},
{1,2,3,4,5,0},
{0,},
{0,},
{0,},
];